Casos de prueba/Caso5.txt
18
4
2,7,6,3
0.05,0.44,0.71,0.99
0,0,2
1,1,5
0,0,6
0,1,2
50
8
